1
35
36
34
16
2
15
32
33
37
3
31
30
29
14
4
13
27
28
38
5
26
25
24
12
6
11
22
23
39
7
20
21
19
10
8
9
17
18
40
41
60
61
62
63
64
59
58
42
83
105
106
107
86
84
85
108
109
110
104
111
112
103
102
101
88
81
67
68
56
55
44
66
65
57
43
82
87
89
100
113
114
99
98
97
90
79
71
72
53
52
46
70
69
54
45
80
91
96
115
116
95
94
93
92
77
74
76
50
49
48
75
73
51
47
78
123
128
127
151
150
152
126
125
124
122
129
130
149
148
147
131
132
121
120
133
134
146
145
144
135
136
119
118
137
138
143
142
141
139
140
117
1
